unsat
(define-fun SC ((s (_ BitVec 4)) (t (_ BitVec 4))) Bool (bvsge (bvlshr s (bvlshr s #b0011)) t))
69.17user 1.67system 1:10.85elapsed 99%CPU (0avgtext+0avgdata 1005404maxresident)k
0inputs+8outputs (0major+477844minor)pagefaults 0swaps
